
Gurobi 13.0.1 (mac64[arm], Python) logging started Fri Apr 17 12:54:00 2026

Set parameter LogToConsole to value 0
Set parameter Username
Set parameter LicenseID to value 2799845
Set parameter LogFile to value "/Users/monitsharma/SMU-Quantum-Repos/quantum-optimization-benchmarks/classical_solutions/results/mdkp/logs/hpp__pet6_solver.log"
Academic license - for non-commercial use only - expires 2027-03-30
Set parameter TimeLimit to value 3600
Set parameter Threads to value 0
Set parameter MIPGap to value 0
Set parameter MIPFocus to value 0
Set parameter DisplayInterval to value 5
Gurobi Optimizer version 13.0.1 build v13.0.1rc0 (mac64[arm] - Darwin 25.4.0 25E253)

CPU model: Apple M3 Pro
Thread count: 12 physical cores, 12 logical processors, using up to 12 threads

Non-default parameters:
TimeLimit  3600
MIPGap  0
LogToConsole  0

Optimize a model with 5 rows, 39 columns and 171 nonzeros (Max)
Model fingerprint: 0x9c4cb86a
Model has 39 linear objective coefficients
Variable types: 0 continuous, 39 integer (39 binary)
Coefficient statistics:
  Matrix range     [1e+00, 3e+02]
  Objective range  [2e+01, 4e+03]
  Bounds range     [1e+00, 1e+00]
  RHS range        [5e+02, 6e+02]

Found heuristic solution: objective 7183.0000000
Presolve time: 0.00s
Presolved: 5 rows, 39 columns, 171 nonzeros
Variable types: 0 continuous, 39 integer (39 binary)

Root relaxation: objective 1.067235e+04, 9 iterations, 0.00 seconds (0.00 work units)

    Nodes    |    Current Node    |     Objective Bounds      |     Work
 Expl Unexpl |  Obj  Depth IntInf | Incumbent    BestBd   Gap | It/Node Time

     0     0 10672.3459    0    4 7183.00000 10672.3459  48.6%     -    0s
H    0     0                    7459.0000000 10672.3459  43.1%     -    0s
H    0     0                    8255.0000000 10672.3459  29.3%     -    0s
H    0     0                    8904.0000000 10672.3459  19.9%     -    0s
H    0     0                    9813.0000000 10672.3459  8.76%     -    0s
H    0     0                    9952.0000000 10672.3459  7.24%     -    0s
H    0     0                    10278.000000 10672.3459  3.84%     -    0s
H    0     0                    10520.000000 10672.3459  1.45%     -    0s
H    0     0                    10584.000000 10669.0110  0.80%     -    0s
     0     0 10651.1636    0    7 10584.0000 10651.1636  0.63%     -    0s
H    0     0                    10586.000000 10651.1636  0.62%     -    0s
H    0     0                    10618.000000 10651.1636  0.31%     -    0s
     0     0 10618.0000    0    7 10618.0000 10618.0000  0.00%     -    0s

Cutting planes:
  Cover: 2
  MIR: 1
  StrongCG: 1

Explored 1 nodes (14 simplex iterations) in 0.00 seconds (0.00 work units)
Thread count was 12 (of 12 available processors)

Solution count 10: 10618 10586 10584 ... 7459

Optimal solution found (tolerance 0.00e+00)
Best objective 1.061800000000e+04, best bound 1.061800000000e+04, gap 0.0000%
